(declare-const X String)
; /filename=[^\n]*\x2emny/i
(assert (str.in.re X (re.++ (str.to.re "/filename=") (re.* (re.comp (str.to.re "\x0a"))) (str.to.re ".mny/i\x0a"))))
; ((\d{4})|(\d{2}))|(0?[2469]|11)(-|\/)((0[0-9])|([12])([0-9]?)|(3[0]?))(-|\/)((0?[13578]|10|12)(-|\/)((0[0-9])|([12])([0-9]?)|(3[01]?))(-|\/)((\d{4}|\d{2})))
(assert (not (str.in.re X (re.union (re.++ (re.union (re.++ (re.opt (str.to.re "0")) (re.union (str.to.re "2") (str.to.re "4") (str.to.re "6") (str.to.re "9"))) (str.to.re "11")) (re.union (str.to.re "-") (str.to.re "/")) (re.union (re.++ (str.to.re "0") (re.range "0" "9")) (re.++ (re.union (str.to.re "1") (str.to.re "2")) (re.opt (re.range "0" "9"))) (re.++ (str.to.re "3") (re.opt (str.to.re "0")))) (re.union (str.to.re "-") (str.to.re "/")) (str.to.re "\x0a") (re.union (re.++ (re.opt (str.to.re "0")) (re.union (str.to.re "1") (str.to.re "3") (str.to.re "5") (str.to.re "7") (str.to.re "8"))) (str.to.re "10") (str.to.re "12")) (re.union (str.to.re "-") (str.to.re "/")) (re.union (re.++ (str.to.re "0") (re.range "0" "9")) (re.++ (re.union (str.to.re "1") (str.to.re "2")) (re.opt (re.range "0" "9"))) (re.++ (str.to.re "3") (re.opt (re.union (str.to.re "0") (str.to.re "1"))))) (re.union (str.to.re "-") (str.to.re "/")) (re.union ((_ re.loop 4 4) (re.range "0" "9")) ((_ re.loop 2 2) (re.range "0" "9")))) ((_ re.loop 4 4) (re.range "0" "9")) ((_ re.loop 2 2) (re.range "0" "9"))))))
; thesearchresltLoggerHost\x3ABetaHWAEHost\x3Ais
(assert (str.in.re X (str.to.re "thesearchresltLoggerHost:BetaHWAEHost:is\x0a")))
; ^([01][012]|0[1-9])/([0-2][0-9]|[3][0-1])/([0-9][0-9][0-9][0-9])$
(assert (str.in.re X (re.++ (re.union (re.++ (re.union (str.to.re "0") (str.to.re "1")) (re.union (str.to.re "0") (str.to.re "1") (str.to.re "2"))) (re.++ (str.to.re "0") (re.range "1" "9"))) (str.to.re "/") (re.union (re.++ (re.range "0" "2") (re.range "0" "9")) (re.++ (str.to.re "3") (re.range "0" "1"))) (str.to.re "/\x0a") (re.range "0" "9") (re.range "0" "9") (re.range "0" "9") (re.range "0" "9"))))
; (^\+[0-9]{2}|^\+[0-9]{2}\(0\)|^\(\+[0-9]{2}\)\(0\)|^00[0-9]{2}|^0)([0-9]{9}$|[0-9\-\s]{10}$)
(assert (str.in.re X (re.++ (re.union (re.++ (str.to.re "+") ((_ re.loop 2 2) (re.range "0" "9"))) (re.++ (str.to.re "+") ((_ re.loop 2 2) (re.range "0" "9")) (str.to.re "(0)")) (re.++ (str.to.re "(+") ((_ re.loop 2 2) (re.range "0" "9")) (str.to.re ")(0)")) (re.++ (str.to.re "00") ((_ re.loop 2 2) (re.range "0" "9"))) (str.to.re "0")) (re.union ((_ re.loop 9 9) (re.range "0" "9")) ((_ re.loop 10 10) (re.union (re.range "0" "9") (str.to.re "-") (str.to.re " ") (str.to.re "\x09") (str.to.re "\x0a") (str.to.re "\x0c") (str.to.re "\x0d")))) (str.to.re "\x0a"))))
(check-sat)
